
Log started (V12.5.0.0) Wed Jun 28 15:41:34 2017

Found incumbent of value 4372.000000 after 0.00 sec. (0.00 ticks)
Tried aggregator 1 time.
MIP Presolve eliminated 2 rows and 2 columns.
Reduced MIP has 10 rows, 22 columns, and 44 nonzeros.
Reduced MIP has 22 binaries, 0 generals, 0 SOSs, and 0 indicators.
Presolve time = 0.00 sec. (0.03 ticks)
Probing time = 0.00 sec. (0.00 ticks)
Tried aggregator 1 time.
Presolve time = 0.00 sec. (0.02 ticks)
Probing time = 0.00 sec. (0.00 ticks)
Clique table members: 5.
MIP emphasis: balance optimality and feasibility.
MIP search method: dynamic search.
Parallel mode: deterministic, using up to 8 threads.
Root relaxation solution time = 0.00 sec. (0.02 ticks)

        Nodes                                         Cuts/
   Node  Left     Objective  IInf  Best Integer    Best Bound    ItCnt     Gap

*     0+    0                         4372.0000      475.0000        5   89.14%
*     0+    0                         2415.0000      475.0000        5   80.33%
      0     0     2413.0000     2     2415.0000     2413.0000        5    0.08%
      0     0     2413.0000     4     2415.0000       Cuts: 2        9    0.08%
      0     0     2413.0000     4     2415.0000       Cuts: 3       13    0.08%
*     0+    0                         2414.0000     2413.0000       13    0.04%
      0     2     2413.0000     4     2414.0000     2413.0000       13    0.04%
Elapsed time = 0.03 sec. (0.49 ticks, tree = 0.01 MB, solutions = 3)
*   153    80      integral     0     2413.0000     2413.0000      231    0.00%

Cover cuts applied:  20
Gomory fractional cuts applied:  1

Root node processing (before b&c):
  Real time             =    0.00 sec. (0.39 ticks)
Parallel b&c, 8 threads:
  Real time             =    0.05 sec. (0.87 ticks)
  Sync time (average)   =    0.00 sec.
  Wait time (average)   =    0.00 sec.
                          ------------
Total (root+branch&cut) =    0.05 sec. (1.26 ticks)

Solution pool: 11 solutions saved.

MIP - Integer optimal solution:  Objective = 2.4130000000e+003
Solution time =    0.05 sec.  Iterations = 390  Nodes = 310
Deterministic time = 1.33 ticks  (28.32 ticks/sec)


Incumbent solution
Variable Name           Solution Value
x2                            1.000000
x3                            1.000000
x4                            1.000000
x6                            1.000000
x8                            1.000000
x11                           1.000000
x12                           1.000000
x13                           1.000000
x14                           1.000000
x16                           1.000000
x17                           1.000000
x20                           1.000000
x22                           1.000000
All other variables in the range 1-24 are 0.
